solution status: optimal solution found
objective value:                     153108.331687361
d11(0,0)                                            1 	(obj:0)
d11(1,1)                                            1 	(obj:0)
d11(1,2)                                            1 	(obj:0)
d11(2,4)                                            1 	(obj:0)
d11(2,7)                                            1 	(obj:0)
d11(2,10)                                           1 	(obj:0)
d11(3,13)                                           1 	(obj:0)
d11(3,14)                                           1 	(obj:0)
d11(3,16)                                           1 	(obj:0)
d11(3,17)                                           1 	(obj:0)
d11(3,19)                                           1 	(obj:0)
d11(3,20)                                           1 	(obj:0)
d11(3,22)                                           1 	(obj:0)
d11(3,23)                                           1 	(obj:0)
d11(3,25)                                           1 	(obj:0)
d11(3,26)                                           1 	(obj:0)
d11(3,28)                                           1 	(obj:0)
d11(3,29)                                           1 	(obj:0)
d11(3,31)                                           1 	(obj:0)
d11(3,32)                                           1 	(obj:0)
d11(3,34)                                           1 	(obj:0)
d11(3,35)                                           1 	(obj:0)
d11(3,37)                                           1 	(obj:0)
d11(3,38)                                           1 	(obj:0)
d11(4,40)                                           1 	(obj:0)
d11(4,41)                                           1 	(obj:0)
d11(4,43)                                           1 	(obj:0)
d11(4,44)                                           1 	(obj:0)
d11(4,46)                                           1 	(obj:0)
d11(4,47)                                           1 	(obj:0)
d11(4,49)                                           1 	(obj:0)
d11(4,50)                                           1 	(obj:0)
d11(4,52)                                           1 	(obj:0)
d11(4,53)                                           1 	(obj:0)
d11(4,55)                                           1 	(obj:0)
d11(4,56)                                           1 	(obj:0)
d11(4,58)                                           1 	(obj:0)
d11(4,59)                                           1 	(obj:0)
d11(4,61)                                           1 	(obj:0)
d11(4,62)                                           1 	(obj:0)
d11(4,64)                                           1 	(obj:0)
d11(4,65)                                           1 	(obj:0)
d11(4,67)                                           1 	(obj:0)
d11(4,68)                                           1 	(obj:0)
d11(4,70)                                           1 	(obj:0)
d11(4,71)                                           1 	(obj:0)
d11(4,73)                                           1 	(obj:0)
d11(4,74)                                           1 	(obj:0)
d11(4,76)                                           1 	(obj:0)
d11(4,77)                                           1 	(obj:0)
d11(4,79)                                           1 	(obj:0)
d11(4,80)                                           1 	(obj:0)
d11(4,82)                                           1 	(obj:0)
d11(4,83)                                           1 	(obj:0)
d11(4,85)                                           1 	(obj:0)
d11(4,86)                                           1 	(obj:0)
d11(4,88)                                           1 	(obj:0)
d11(4,89)                                           1 	(obj:0)
d11(4,91)                                           1 	(obj:0)
d11(4,92)                                           1 	(obj:0)
d11(4,94)                                           1 	(obj:0)
d11(4,95)                                           1 	(obj:0)
d11(4,97)                                           1 	(obj:0)
d11(4,98)                                           1 	(obj:0)
d11(4,100)                                          1 	(obj:0)
d11(4,101)                                          1 	(obj:0)
d11(4,103)                                          1 	(obj:0)
d11(4,104)                                          1 	(obj:0)
d11(4,106)                                          1 	(obj:0)
d11(4,107)                                          1 	(obj:0)
d11(4,109)                                          1 	(obj:0)
d11(4,110)                                          1 	(obj:0)
d11(4,112)                                          1 	(obj:0)
d11(4,113)                                          1 	(obj:0)
d11(4,115)                                          1 	(obj:0)
d11(4,116)                                          1 	(obj:0)
d11(4,118)                                          1 	(obj:0)
d11(4,119)                                          1 	(obj:0)
d12(2,5)                                            1 	(obj:0)
d12(2,6)                                            1 	(obj:0)
d12(2,8)                                            1 	(obj:0)
d12(2,9)                                            1 	(obj:0)
d12(2,11)                                           1 	(obj:0)
d12(2,12)                                           1 	(obj:0)
d12(4,42)                                           1 	(obj:0)
d12(4,45)                                           1 	(obj:0)
d12(4,48)                                           1 	(obj:0)
d12(4,51)                                           1 	(obj:0)
d12(4,54)                                           1 	(obj:0)
d12(4,57)                                           1 	(obj:0)
d12(4,60)                                           1 	(obj:0)
d12(4,63)                                           1 	(obj:0)
d12(4,66)                                           1 	(obj:0)
d12(4,69)                                           1 	(obj:0)
d12(4,72)                                           1 	(obj:0)
d12(4,75)                                           1 	(obj:0)
d12(4,78)                                           1 	(obj:0)
d12(4,81)                                           1 	(obj:0)
d12(4,84)                                           1 	(obj:0)
d12(4,87)                                           1 	(obj:0)
d12(4,90)                                           1 	(obj:0)
d12(4,93)                                           1 	(obj:0)
d12(4,96)                                           1 	(obj:0)
d12(4,99)                                           1 	(obj:0)
d12(4,102)                                          1 	(obj:0)
d12(4,105)                                          1 	(obj:0)
d12(4,108)                                          1 	(obj:0)
d12(4,111)                                          1 	(obj:0)
d12(4,114)                                          1 	(obj:0)
d12(4,117)                                          1 	(obj:0)
d12(4,120)                                          1 	(obj:0)
d21(3,13)                                           1 	(obj:0)
d21(3,14)                                           1 	(obj:0)
d21(3,16)                                           1 	(obj:0)
d21(3,22)                                           1 	(obj:0)
d21(4,40)                                           1 	(obj:0)
d21(4,41)                                           1 	(obj:0)
d21(4,42)                                           1 	(obj:0)
d21(4,43)                                           1 	(obj:0)
d21(4,44)                                           1 	(obj:0)
d21(4,45)                                           1 	(obj:0)
d21(4,46)                                           1 	(obj:0)
d21(4,47)                                           1 	(obj:0)
d21(4,49)                                           1 	(obj:0)
d21(4,50)                                           1 	(obj:0)
d21(4,51)                                           1 	(obj:0)
d21(4,52)                                           1 	(obj:0)
d21(4,53)                                           1 	(obj:0)
d21(4,54)                                           1 	(obj:0)
d21(4,55)                                           1 	(obj:0)
d21(4,58)                                           1 	(obj:0)
d21(4,59)                                           1 	(obj:0)
d21(4,60)                                           1 	(obj:0)
d21(4,61)                                           1 	(obj:0)
d21(4,62)                                           1 	(obj:0)
d21(4,67)                                           1 	(obj:0)
d21(4,68)                                           1 	(obj:0)
d21(4,69)                                           1 	(obj:0)
d21(4,70)                                           1 	(obj:0)
d21(4,71)                                           1 	(obj:0)
d21(4,73)                                           1 	(obj:0)
d21(4,76)                                           1 	(obj:0)
d21(4,77)                                           1 	(obj:0)
d21(4,78)                                           1 	(obj:0)
d21(4,79)                                           1 	(obj:0)
d21(4,80)                                           1 	(obj:0)
d21(4,82)                                           1 	(obj:0)
d21(4,85)                                           1 	(obj:0)
d21(4,86)                                           1 	(obj:0)
d21(4,88)                           0.999999999999999 	(obj:0)
d21(4,94)                                           1 	(obj:0)
d21(4,95)                                           1 	(obj:0)
d21(4,97)                                           1 	(obj:0)
d21(4,103)                                          1 	(obj:0)
y2(4,102)                            457.901175266798 	(obj:0)
y2(4,105)                            457.901175266798 	(obj:0)
y2(4,108)                            457.901175266797 	(obj:0)
y2(4,111)                            457.901175266798 	(obj:0)
y2(4,114)                            457.901175266798 	(obj:0)
y2(4,117)                            457.901175266798 	(obj:0)
y2(4,120)                            457.901175266798 	(obj:0)
STE(1,1)                             7936.48093841498 	(obj:0)
STE(0,0)                                        11025 	(obj:0)
STE(1,2)                             8933.24694174827 	(obj:0)
STE(1,3)                                        10143 	(obj:0)
STE(2,4)                             7054.48093841498 	(obj:0)
STE(2,5)                              7813.1426705649 	(obj:0)
STE(2,6)                             8854.06430441493 	(obj:0)
STE(2,7)                             8051.24694174827 	(obj:0)
STE(2,8)                             8809.90867389818 	(obj:0)
STE(2,9)                             9850.83030774822 	(obj:0)
STE(2,10)                                        9261 	(obj:0)
STE(2,11)                            10019.6617321499 	(obj:0)
STE(2,12)                            11060.5833659999 	(obj:0)
STE(3,13)                            3965.96187682996 	(obj:0)
STE(3,14)                            4962.72788016329 	(obj:0)
STE(3,15)                            6172.48093841498 	(obj:0)
STE(3,16)                            4724.62360897988 	(obj:0)
STE(3,17)                            5721.38961231317 	(obj:0)
STE(3,18)                             6931.1426705649 	(obj:0)
STE(3,19)                            5765.54524282991 	(obj:0)
STE(3,20)                             6762.3112461632 	(obj:0)
STE(3,21)                            7972.06430441493 	(obj:0)
STE(3,22)                            4962.72788016325 	(obj:0)
STE(3,23)                            5959.49388349654 	(obj:0)
STE(3,24)                            7169.24694174827 	(obj:0)
STE(3,25)                            5721.38961231316 	(obj:0)
STE(3,26)                            6718.15561564646 	(obj:0)
STE(3,27)                            7927.90867389818 	(obj:0)
STE(3,28)                             6762.3112461632 	(obj:0)
STE(3,29)                             7759.0772494965 	(obj:0)
STE(3,30)                            8968.83030774822 	(obj:0)
STE(3,31)                            6172.48093841498 	(obj:0)
STE(3,32)                            7169.24694174827 	(obj:0)
STE(3,33)                                        8379 	(obj:0)
STE(3,34)                             6931.1426705649 	(obj:0)
STE(3,35)                            7927.90867389819 	(obj:0)
STE(3,36)                            9137.66173214992 	(obj:0)
STE(3,37)                            7972.06430441493 	(obj:0)
STE(3,38)                            8968.83030774822 	(obj:0)
STE(3,39)                                10178.583366 	(obj:0)
STE(4,40)                            1550.55320293177 	(obj:0)
STE(4,41)                            2547.31920626506 	(obj:0)
STE(4,42)                            3518.96799333342 	(obj:0)
STE(4,43)                             2547.3192062651 	(obj:0)
STE(4,44)                            3544.08520959839 	(obj:0)
STE(4,45)                            4515.73399666675 	(obj:0)
STE(4,46)                            3757.07226451679 	(obj:0)
STE(4,47)                            4753.83826785008 	(obj:0)
STE(4,48)                            5725.48705491844 	(obj:0)
STE(4,49)                            2309.21493508169 	(obj:0)
STE(4,50)                            3305.98093841498 	(obj:0)
STE(4,51)                            4277.62972548334 	(obj:0)
STE(4,52)                            3305.98093841498 	(obj:0)
STE(4,53)                            4302.74694174827 	(obj:0)
STE(4,54)                            5274.39572881663 	(obj:0)
STE(4,55)                            4515.73399666671 	(obj:0)
STE(4,56)                                      5512.5 	(obj:0)
STE(4,57)                            6484.14878706836 	(obj:0)
STE(4,58)                            3350.13656893172 	(obj:0)
STE(4,59)                            4346.90257226501 	(obj:0)
STE(4,60)                            5318.55135933337 	(obj:0)
STE(4,61)                            4346.90257226501 	(obj:0)
STE(4,62)                             5343.6685755983 	(obj:0)
STE(4,63)                            6315.31736266666 	(obj:0)
STE(4,64)                            5556.65563051674 	(obj:0)
STE(4,65)                            6553.42163385003 	(obj:0)
STE(4,66)                            7525.07042091839 	(obj:0)
STE(4,67)                            2547.31920626506 	(obj:0)
STE(4,68)                            3544.08520959835 	(obj:0)
STE(4,69)                            4515.73399666671 	(obj:0)
STE(4,70)                            3544.08520959835 	(obj:0)
STE(4,71)                            4540.85121293164 	(obj:0)
STE(4,72)                                      5512.5 	(obj:0)
STE(4,73)                            4753.83826785008 	(obj:0)
STE(4,74)                            5750.60427118337 	(obj:0)
STE(4,75)                            6722.25305825173 	(obj:0)
STE(4,76)                            3305.98093841497 	(obj:0)
STE(4,77)                            4302.74694174826 	(obj:0)
STE(4,78)                            5274.39572881662 	(obj:0)
STE(4,79)                            4302.74694174826 	(obj:0)
STE(4,80)                            5299.51294508155 	(obj:0)
STE(4,81)                            6271.16173214991 	(obj:0)
STE(4,82)                            5512.49999999999 	(obj:0)
STE(4,83)                            6509.26600333328 	(obj:0)
STE(4,84)                            7480.91479040164 	(obj:0)
STE(4,85)                            4346.90257226501 	(obj:0)
STE(4,86)                             5343.6685755983 	(obj:0)
STE(4,87)                            6315.31736266666 	(obj:0)
STE(4,88)                             5343.6685755983 	(obj:0)
STE(4,89)                            6340.43457893159 	(obj:0)
STE(4,90)                            7312.08336599995 	(obj:0)
STE(4,91)                            6553.42163385003 	(obj:0)
STE(4,92)                            7550.18763718332 	(obj:0)
STE(4,93)                            8521.83642425168 	(obj:0)
STE(4,94)                            3757.07226451679 	(obj:0)
STE(4,95)                            4753.83826785008 	(obj:0)
STE(4,96)                            5725.48705491844 	(obj:0)
STE(4,97)                            4753.83826785008 	(obj:0)
STE(4,98)                            5750.60427118337 	(obj:0)
STE(4,99)                            6722.25305825173 	(obj:0)
STE(4,100)                            5963.5913261018 	(obj:0)
STE(4,101)                           6960.35732943509 	(obj:0)
STE(4,102)                           7932.00611650345 	(obj:0)
STE(4,103)                           4515.73399666671 	(obj:0)
STE(4,104)                                     5512.5 	(obj:0)
STE(4,105)                           6484.14878706836 	(obj:0)
STE(4,106)                                     5512.5 	(obj:0)
STE(4,107)                           6509.26600333329 	(obj:0)
STE(4,108)                           7480.91479040165 	(obj:0)
STE(4,109)                           6722.25305825173 	(obj:0)
STE(4,110)                           7719.01906158502 	(obj:0)
STE(4,111)                           8690.66784865338 	(obj:0)
STE(4,112)                           5556.65563051674 	(obj:0)
STE(4,113)                           6553.42163385003 	(obj:0)
STE(4,114)                           7525.07042091839 	(obj:0)
STE(4,115)                           6553.42163385003 	(obj:0)
STE(4,116)                           7550.18763718332 	(obj:0)
STE(4,117)                           8521.83642425168 	(obj:0)
STE(4,118)                           7763.17469210176 	(obj:0)
STE(4,119)                           8759.94069543505 	(obj:0)
STE(4,120)                           9731.58948250341 	(obj:0)
y1(4,100)                            1380.06780650837 	(obj:0)
y1(4,101)                            482.978403508412 	(obj:0)
y1(4,103)                            1380.06780650837 	(obj:0)
y1(4,104)                            482.978403508412 	(obj:0)
y1(4,106)                            1380.06780650837 	(obj:0)
y1(4,107)                            482.978403508412 	(obj:0)
y1(4,109)                            1380.06780650837 	(obj:0)
y1(4,110)                            482.978403508412 	(obj:0)
y1(4,112)                            1380.06780650837 	(obj:0)
y1(4,113)                            482.978403508412 	(obj:0)
y1(4,115)                            1380.06780650837 	(obj:0)
y1(4,116)                            482.978403508412 	(obj:0)
y1(4,118)                            1380.06780650837 	(obj:0)
y1(4,119)                            482.978403508412 	(obj:0)
AVE(3)                                3399.3204933139 	(obj:0)
AVE(4)                               3353.21046544222 	(obj:0)
y2(4,99)                             457.901175266798 	(obj:0)
WG(3)                                 3399.3204933139 	(obj:10)
WG(4)                                3353.21046544222 	(obj:10)
BG(1)                                4488.84770655763 	(obj:10)
BG(2)                                2462.45265000004 	(obj:10)
BG(3)                                1089.52721324375 	(obj:10)
BG(4)                                517.474640178554 	(obj:10)
WB(1)                                3134.60043707458 	(obj:0)
AVE(1)                               3134.60043707458 	(obj:0)
WB(2)                                3326.45170866643 	(obj:0)
AVE(2)                               3326.45170866643 	(obj:0)
y1(1,1)                              1985.86715542652 	(obj:0)
y1(1,2)                              1088.77775242656 	(obj:0)
y1(3,13)                             1985.86715542652 	(obj:0)
y1(3,14)                             1088.77775242651 	(obj:0)
y1(3,16)                             1985.86715542652 	(obj:0)
y1(3,17)                             1088.77775242655 	(obj:0)
y1(3,19)                             1985.86715542652 	(obj:0)
y1(3,20)                             1088.77775242655 	(obj:0)
y1(3,22)                             1985.86715542652 	(obj:0)
y1(3,23)                             1088.77775242655 	(obj:0)
y1(3,25)                             1985.86715542652 	(obj:0)
y1(3,26)                             1088.77775242655 	(obj:0)
y1(3,28)                             1985.86715542652 	(obj:0)
y1(3,29)                             1088.77775242655 	(obj:0)
y1(3,31)                             1985.86715542652 	(obj:0)
y1(3,32)                             1088.77775242655 	(obj:0)
y1(3,34)                             1985.86715542652 	(obj:0)
y1(3,35)                             1088.77775242655 	(obj:0)
y1(3,37)                             1985.86715542652 	(obj:0)
y1(3,38)                             1088.77775242655 	(obj:0)
y1(4,40)                             1380.06780650837 	(obj:0)
y1(4,41)                             482.978403508412 	(obj:0)
y1(4,43)                             1380.06780650837 	(obj:0)
y1(4,44)                             482.978403508412 	(obj:0)
y1(4,46)                             1380.06780650837 	(obj:0)
y1(4,47)                             482.978403508412 	(obj:0)
y1(4,49)                             1380.06780650837 	(obj:0)
y1(4,50)                             482.978403508412 	(obj:0)
y1(4,52)                             1380.06780650837 	(obj:0)
y1(4,53)                             482.978403508412 	(obj:0)
y1(4,55)                             1380.06780650837 	(obj:0)
y1(4,56)                             482.978403508412 	(obj:0)
y1(4,58)                             1380.06780650837 	(obj:0)
y1(4,59)                             482.978403508412 	(obj:0)
y1(4,61)                             1380.06780650837 	(obj:0)
y1(4,62)                             482.978403508412 	(obj:0)
y1(4,64)                             1380.06780650837 	(obj:0)
y1(4,65)                             482.978403508412 	(obj:0)
y1(4,67)                             1380.06780650837 	(obj:0)
y1(4,68)                             482.978403508412 	(obj:0)
y1(4,70)                             1380.06780650837 	(obj:0)
y1(4,71)                             482.978403508412 	(obj:0)
y1(4,73)                             1380.06780650837 	(obj:0)
y1(4,74)                             482.978403508412 	(obj:0)
y1(4,76)                             1380.06780650837 	(obj:0)
y1(4,77)                             482.978403508412 	(obj:0)
y1(4,79)                             1380.06780650837 	(obj:0)
y1(4,80)                             482.978403508412 	(obj:0)
y1(4,82)                             1380.06780650837 	(obj:0)
y1(4,83)                             482.978403508412 	(obj:0)
y1(4,85)                             1380.06780650837 	(obj:0)
y1(4,86)                             482.978403508412 	(obj:0)
y1(4,88)                             1380.06780650837 	(obj:0)
y1(4,89)                             482.978403508412 	(obj:0)
y1(4,91)                             1380.06780650837 	(obj:0)
y1(4,92)                             482.978403508412 	(obj:0)
y1(4,94)                             1380.06780650837 	(obj:0)
y1(4,95)                             482.978403508412 	(obj:0)
y1(4,97)                             1380.06780650837 	(obj:0)
y1(4,98)                             482.978403508412 	(obj:0)
y2(2,5)                               798.59129699992 	(obj:0)
y2(2,6)                              1894.29827999995 	(obj:0)
y2(2,8)                              798.591296999909 	(obj:0)
y2(2,9)                              1894.29827999995 	(obj:0)
y2(2,11)                              798.59129699992 	(obj:0)
y2(2,12)                             1894.29827999995 	(obj:0)
y2(4,42)                             457.901175266798 	(obj:0)
y2(4,45)                             457.901175266798 	(obj:0)
y2(4,48)                             457.901175266797 	(obj:0)
y2(4,51)                             457.901175266798 	(obj:0)
y2(4,54)                             457.901175266798 	(obj:0)
y2(4,57)                             457.901175266798 	(obj:0)
y2(4,60)                             457.901175266797 	(obj:0)
y2(4,63)                             457.901175266797 	(obj:0)
y2(4,66)                             457.901175266798 	(obj:0)
y2(4,69)                             457.901175266798 	(obj:0)
y2(4,72)                             457.901175266797 	(obj:0)
y2(4,75)                             457.901175266797 	(obj:0)
y2(4,78)                             457.901175266798 	(obj:0)
y2(4,81)                             457.901175266797 	(obj:0)
y2(4,84)                             457.901175266798 	(obj:0)
y2(4,87)                             457.901175266797 	(obj:0)
y2(4,90)                             457.901175266797 	(obj:0)
y2(4,93)                             457.901175266798 	(obj:0)
y2(4,96)                             457.901175266797 	(obj:0)
